c 
c MolecularSimulation 0.9.3
c Simulation written: Jan 13 2012 -- 15:17:57
c Test: Distribution
c Input: ./data/testCNF/SWEEP_R1_K3_N16_M16_S000.cnf
c 
s SATISFIABLE
v 2 3 4 5 7 8 -10 11 -13 14 -16 0
c algorithmTime:  2
c solutionMemory: 8187
c mixCount:       45
c extractCount:   0
c appendCount:    66862
c splitCount:     45
c spliceCount:    29935
c purifyCount:    15
c 
